n_potions = 66;
alchemy = [4, 2, 4, 3, 5, 3, 4, 2, 5, 3, 4, 2, 5, 1, 2, 2, 2, 4, 3, 4, 3, 2, 3, 3, 3, 3, 2, 1, 3, 1, 3, 3, 3, 5, 1, 1, 4, 5, 3, 3, 4, 1, 1, 5, 3, 1, 3, 3, 2, 2, 3, 1, 5, 5, 1, 4, 3, 1, 5, 2, 2, 1, 1, 2, 5, 1];
n_days = 12;
min_potions = 5;
max_potions = 7;
min_alchemists = 5;
max_alchemists = 35;
prereqs = [|7,1
|8,2
|8,6
|10,5
|11,5
|11,6
|12,7
|13,8
|14,3
|16,9
|17,10
|17,11
|19,8
|20,9
|21,10
|24,13
|24,19
|26,13
|26,23
|30,9
|34,17
|35,9
|35,17
|37,30
|37,35
|38,33
|41,9
|41,17
|41,18
|43,20
|44,16
|45,38
|46,37
|47,42
|49,30
|49,32
|51,33
|53,47
|54,50
|55,43
|55,38
|56,51
|57,39
|57,34
|58,28
|59,55
|61,48
|62,31
|63,48
|65,59
|];
